Output/Sols/instance_2.sol
# Solution for instance_2
# Number of deliveries: 5
# Number of feasible trips generated: 10
# Number of trips selected: 2

Trip transporter_id: T2, total_km: 21.00, weight: 1745.00, volume: 1.80
Deliveries: D1, D4

Trip transporter_id: T2, total_km: 146.00, weight: 2129.00, volume: 6.65
Deliveries: D0, D2, D3

