Output/Logs/instance_2.log
Feasible trips for instance_2:
Source: D0, total_km: 96.00, total_weight: 855.00, total_volume: 2.22, score: 1.00
Deliveries: D0

Source: D1, total_km: 79.00, total_weight: 994.00, total_volume: 0.64, score: 1.00
Deliveries: D1

Source: D2, total_km: 79.00, total_weight: 416.00, total_volume: 2.78, score: 1.00
Deliveries: D2

Source: D3, total_km: 27.00, total_weight: 858.00, total_volume: 1.65, score: 1.00
Deliveries: D3

Source: D4, total_km: 79.00, total_weight: 751.00, total_volume: 1.16, score: 1.00
Deliveries: D4

Source: D0, total_km: 102.00, total_weight: 1271.00, total_volume: 5.00, score: 0.58
Deliveries: D0, D2

Source: D0, total_km: 68.00, total_weight: 1713.00, total_volume: 3.87, score: 0.55
Deliveries: D0, D3

Source: D1, total_km: 79.00, total_weight: 1745.00, total_volume: 1.80, score: 0.50
Deliveries: D1, D4

Source: D2, total_km: 65.00, total_weight: 1274.00, total_volume: 4.43, score: 0.61
Deliveries: D2, D3

Source: D0, total_km: 88.00, total_weight: 2129.00, total_volume: 6.65, score: 0.44
Deliveries: D0, D2, D3


Gurobi 12.0.3 (win64) logging started Mon Aug  4 19:00:07 2025

Set parameter LogFile to value "Output/Logs\instance_2.log"
Set parameter TimeLimit to value 3600
Set parameter Seed to value 12345
Gurobi Optimizer version 12.0.3 build v12.0.3rc0 (win64 - Windows 11.0 (26100.2))

CPU model: Intel(R) Core(TM) i5-10310U CPU @ 1.70GHz, instruction set [SSE2|AVX|AVX2]
Thread count: 4 physical cores, 8 logical processors, using up to 8 threads

Non-default parameters:
TimeLimit  3600
Seed  12345

Optimize a model with 5 rows, 10 columns and 16 nonzeros
Model fingerprint: 0x608b9efe
Variable types: 0 continuous, 10 integer (10 binary)
Coefficient statistics:
  Matrix range     [1e+00, 1e+00]
  Objective range  [4e-01, 1e+00]
  Bounds range     [1e+00, 1e+00]
  RHS range        [1e+00, 1e+00]
Found heuristic solution: objective 5.0000000
Presolve removed 2 rows and 3 columns
Presolve time: 0.00s
Presolved: 3 rows, 7 columns, 12 nonzeros
Found heuristic solution: objective 3.5000000
Variable types: 0 continuous, 7 integer (7 binary)

Root relaxation: objective 9.356436e-01, 1 iterations, 0.00 seconds (0.00 work units)

    Nodes    |    Current Node    |     Objective Bounds      |     Work
 Expl Unexpl |  Obj  Depth IntInf | Incumbent    BestBd   Gap | It/Node Time

*    0     0               0       0.9356436    0.93564  0.00%     -    0s

Explored 1 nodes (1 simplex iterations) in 0.01 seconds (0.00 work units)
Thread count was 8 (of 8 available processors)

Solution count 3: 0.935644 3.5 5 

Optimal solution found (tolerance 1.00e-04)
Best objective 9.356435643564e-01, best bound 9.356435643564e-01, gap 0.0000%
Selected trips for instance_2:
Trip 0: Source: D1, Total KM: 79.00, Weight: 1745.00, Volume: 1.80, Deliveries: D1, D4, Score: 0.50
Trip 1: Source: D0, Total KM: 88.00, Weight: 2129.00, Volume: 6.65, Deliveries: D0, D2, D3, Score: 0.44
Deliveries count: 5
Feasible trips generated: 10
Trips selected: 2
Elapsed time (seconds): 0.01
